[VALIDATOR STDOUT]
Checking plan: /home/jfan5/Safety-gen/runs/benchmark/optic/delivery_20260201_172908/delivery/optic_results/delivery_size27_packages1_seed27001.plan
Plan executed successfully - checking goal
Plan valid
Final value: 109 

Successful plans:
Value: 109
 /home/jfan5/Safety-gen/runs/benchmark/optic/delivery_20260201_172908/delivery/optic_results/delivery_size27_packages1_seed27001.plan 109
